 QM atoms created by QMCL
      1.00
    33.13366     0.00000     0.00000
     0.00000    34.06524     0.00000
     0.00000     0.00000     2.45518
   104
direct
   0.2555279   0.2646193   0.3341973
   0.2556597   0.3823092   0.3348624
   0.1857917   0.3823439   0.0015665
   0.2206640   0.3234888   0.6677321
   0.2557555   0.4999869   0.3357819
   0.1509039   0.4411863   0.3353886
   0.1858776   0.5000054   0.0024187
   0.2207839   0.4411645   0.6687858
   0.2556668   0.6176760   0.3347004
   0.1509096   0.5588403   0.3352904
   0.1858035   0.6176709   0.0013749
   0.2207884   0.5588302   0.6686526
   0.2555434   0.7353882   0.3340773
   0.2206801   0.6765189   0.6675368
   0.4649808   0.1467772   0.3350878
   0.4650604   0.2645353   0.3355359
   0.3602491   0.2056890   0.3348205
   0.3952442   0.2645375   0.0015070
   0.4300977   0.2056495   0.6685419
   0.2903906   0.2057379   0.0010256
   0.3253876   0.2645640   0.6679655
   0.4651132   0.3823612   0.3368957
   0.3603786   0.3233995   0.3348220
   0.3953298   0.3822738   0.0018343
   0.4302050   0.3234263   0.6684327
   0.2905276   0.3234402   0.0012305
   0.3255071   0.3822663   0.6681227
   0.4651133   0.4999910   0.3373833
   0.3604730   0.4411142   0.3353741
   0.3954260   0.4999731   0.0041546
   0.4303215   0.4411570   0.6693992
   0.2906415   0.4411332   0.0019072
   0.3256046   0.4999725   0.6692050
   0.4650916   0.6175896   0.3372387
   0.3604601   0.5588312   0.3354764
   0.3953090   0.6176754   0.0020860
   0.4303040   0.5587984   0.6696161
   0.2906398   0.5588277   0.0018395
   0.3255012   0.6176946   0.6681702
   0.4650430   0.7354291   0.3360291
   0.3603742   0.6765656   0.3350577
   0.3952389   0.7354344   0.0018456
   0.4301889   0.6765263   0.6688706
   0.2905358   0.6765447   0.0011923
   0.3253943   0.7354252   0.6680506
   0.4649687   0.8532228   0.3353609
   0.3602516   0.7943076   0.3349515
   0.4300884   0.7943348   0.6688737
   0.2904021   0.7942736   0.0009747
   0.5348464   0.1467865   0.6682110
   0.6745022   0.2646041   0.3368339
   0.5697607   0.2056725   0.3358539
   0.6046427   0.2645783   0.0040027
   0.6396051   0.2057263   0.6692069
   0.4999304   0.2056358   0.0022476
   0.5348342   0.2645508   0.6702336
   0.6744693   0.3822928   0.3386415
   0.5697112   0.3234728   0.3386203
   0.6046340   0.3823016   0.0057426
   0.6395473   0.3234371   0.6714737
   0.4999688   0.3234849   0.0035154
   0.5348210   0.3824318   0.6707628
   0.6744600   0.5000133   0.3390144
   0.5697419   0.4411766   0.3392205
   0.6053005   0.4999988   0.0042121
   0.6395720   0.4411338   0.6726074
   0.5000080   0.4412315   0.0038546
   0.5349701   0.4999906   0.6721318
   0.6744529   0.6177338   0.3386099
   0.5697334   0.5588119   0.3390888
   0.6046163   0.6177013   0.0058211
   0.6395594   0.5588806   0.6725560
   0.4999926   0.5587184   0.0036900
   0.5347969   0.6175300   0.6710398
   0.6744806   0.7354249   0.3369222
   0.5696847   0.6765103   0.3389183
   0.6046165   0.7354251   0.0042820
   0.6395253   0.6765789   0.6715526
   0.4999445   0.6764692   0.0040073
   0.5348074   0.7354248   0.6707313
   0.5697344   0.7943247   0.3362675
   0.6395813   0.7942935   0.6694340
   0.4999097   0.7943480   0.0027074
   0.5348258   0.8532160   0.6685724
   0.7094644   0.2057755   0.0023270
   0.7443645   0.2646546   0.6696696
   0.7792684   0.3235192   0.3364805
   0.8141796   0.3823669   0.0027661
   0.7094049   0.3234754   0.0041148
   0.7443155   0.3823414   0.6708302
   0.7792273   0.4411924   0.3368818
   0.8141448   0.5000284   0.0026463
   0.8490961   0.4412020   0.6687460
   0.7093827   0.4411654   0.0051928
   0.7442865   0.5000230   0.6709551
   0.7792184   0.5588596   0.3368124
   0.8141683   0.6176888   0.0026995
   0.8490896   0.5588572   0.6686986
   0.7093716   0.5588717   0.0051111
   0.7443011   0.6177041   0.6707514
   0.7792538   0.6765320   0.3364331
   0.7093863   0.6765623   0.0040879
   0.7443479   0.7353910   0.6696717
   0.7094458   0.7942634   0.0024017
