 bulk Si
   5.476
   2.000   0.000   0.000
   0.000   2.000   0.000
   0.000   0.000   2.000
  64   1
Selective dynamics
direct
  -0.02325536 -0.02325536 -0.02325536  T T T
   0.25557897  0.25557897 -0.00171430  T T T
   0.25557897 -0.00171430  0.25557897  T T T
  -0.00171430  0.25557897  0.25557897  T T T
   0.14825536  0.14825536  0.14825536  T T T
   0.37765367  0.37765367  0.12610209  T T T
   0.37765367  0.12610209  0.37765367  T T T
   0.12610209  0.37765367  0.37765367  T T T
  -0.00007220 -0.00007220  0.50023127  T T T
   0.25044685  0.25044685  0.50080689  T T T
   0.24999761  0.00060076  0.74956636  T T T
   0.00060076  0.24999761  0.74956636  T T T
   0.12507220  0.12507220  0.62476873  T T T
   0.37526883  0.37526883  0.62565254  T T T
   0.37543364  0.12439924  0.87500239  T T T
   0.12439924  0.37543364  0.87500239  T T T
  -0.00007220  0.50023127 -0.00007220  T T T
   0.24999761  0.74956636  0.00060076  T T T
   0.25044685  0.50080689  0.25044685  T T T
   0.00060076  0.74956636  0.24999761  T T T
   0.12507220  0.62476873  0.12507220  T T T
   0.37543364  0.87500239  0.12439924  T T T
   0.37526883  0.62565254  0.37526883  T T T
   0.12439924  0.87500239  0.37543364  T T T
  -0.00035987  0.50079719  0.50079719  T T T
   0.24996760  0.75011944  0.49997511  T T T
   0.24996760  0.49997511  0.75011944  T T T
  -0.00110209  0.74734633  0.74734633  T T T
   0.12535987  0.62420281  0.62420281  T T T
   0.37488056  0.87503240  0.62502489  T T T
   0.37488056  0.62502489  0.87503240  T T T
   0.12671430  0.86942103  0.86942103  T T T
   0.50023127 -0.00007220 -0.00007220  T T T
   0.74956636  0.24999761  0.00060076  T T T
   0.74956636  0.00060076  0.24999761  T T T
   0.50080689  0.25044685  0.25044685  T T T
   0.62476873  0.12507220  0.12507220  T T T
   0.87500239  0.37543364  0.12439924  T T T
   0.87500239  0.12439924  0.37543364  T T T
   0.62565254  0.37526883  0.37526883  T T T
   0.50079719 -0.00035987  0.50079719  T T T
   0.75011944  0.24996760  0.49997511  T T T
   0.74734633 -0.00110209  0.74734633  T T T
   0.49997511  0.24996760  0.75011944  T T T
   0.62420281  0.12535987  0.62420281  T T T
   0.87503240  0.37488056  0.62502489  T T T
   0.86942103  0.12671430  0.86942103  T T T
   0.62502489  0.37488056  0.87503240  T T T
   0.50079719  0.50079719 -0.00035987  T T T
   0.74734633  0.74734633 -0.00110209  T T T
   0.75011944  0.49997511  0.24996760  T T T
   0.49997511  0.75011944  0.24996760  T T T
   0.62420281  0.62420281  0.12535987  T T T
   0.86942103  0.86942103  0.12671430  T T T
   0.87503240  0.62502489  0.37488056  T T T
   0.62502489  0.87503240  0.37488056  T T T
   0.50004382  0.50004382  0.50004382  T T T
   0.74973117  0.74973117  0.49934746  T T T
   0.74973117  0.49934746  0.74973117  T T T
   0.49934746  0.74973117  0.74973117  T T T
   0.62495618  0.62495618  0.62495618  T T T
   0.87455315  0.87455315  0.62419311  T T T
   0.87455315  0.62419311  0.87455315  T T T
   0.62419311  0.87455315  0.87455315  T T T
   0.06000000  0.06000000  0.06000000  T T T
